ACTORES = {Actor1, Actor2, Actor3, Actor4} ;

Escenas = [| 0,1,0,0,0,0,10
           | 0,1,1,1,0,1,20
           | 0,0,0,0,1,1,15
           | 1,0,0,1,0,1,12|]; 
           
Duracion = [2,1,1,1,3,4];

% ----------
% Sol = [5, 6, 4, 3, 2, 1];
% costo = 363;
% XD = 6;
% Actor_Costo = [10, 140, 105, 108];
% ----------
% ==========
% Finished in 446msec.


